QPLIB_3369
LCQ
minimize
485 # number of variables
148 # number of constraints
0.0 # default value for linear coefficients in objective
96 # number of non-default linear coefficients in objective
1 1.0
2 1.0
3 1.0
4 1.0
5 1.0
6 1.0
7 1.0
8 1.0
9 1.0
10 1.0
11 1.0
12 1.0
13 1.0
14 1.0
15 1.0
16 1.0
17 1.0
18 1.0
19 1.0
20 1.0
21 1.0
22 1.0
23 1.0
24 1.0
25 1.0
26 1.0
27 1.0
28 1.0
29 1.0
30 1.0
31 1.0
32 1.0
33 1.0
34 1.0
35 1.0
36 1.0
37 1.0
38 1.0
39 1.0
40 1.0
41 1.0
42 1.0
43 1.0
44 1.0
45 1.0
46 1.0
47 1.0
48 1.0
49 1.0
50 1.0
51 1.0
52 1.0
53 1.0
54 1.0
55 1.0
56 1.0
57 1.0
58 1.0
59 1.0
60 1.0
61 1.0
62 1.0
63 1.0
64 1.0
65 1.0
66 1.0
67 1.0
68 1.0
69 1.0
70 1.0
71 1.0
72 1.0
73 1.0
74 1.0
75 1.0
76 1.0
77 1.0
78 1.0
79 1.0
80 1.0
81 1.0
82 1.0
83 1.0
84 1.0
85 1.0
86 1.0
87 1.0
88 1.0
89 1.0
90 1.0
91 1.0
92 1.0
93 1.0
94 1.0
95 1.0
96 1.0
0.0 # objective constant
988 # number of quadratic terms in all constraints
33 1684152432 1 2.0
33 1684152432 1 -2.0
33 1684152432 1 -2.0
33 1684152432 1 -2.0
33 1684152432 1 -2.0
33 1684152432 1 -2.0
33 1684152432 1 -2.0
33 1684152432 1 -2.0
33 1684152432 1 -2.0
33 1684152432 1 -2.0
33 1684152432 1 -2.0
33 1684152432 1 -2.0
33 1684152432 1 -2.0
33 1684152432 1 -2.0
34 540156025 1 2.0
34 540156025 1 -2.0
34 540156025 1 -2.0
34 540156025 1 -2.0
34 540156025 1 -2.0
34 540156025 1 -2.0
34 540156025 1 -2.0
34 540156025 1 -2.0
34 540156025 1 -2.0
34 540156025 1 -2.0
34 540156025 1 -2.0
34 540156025 1 -2.0
34 540156025 1 -2.0
34 540156025 1 -2.0
35 1163218737 1 2.0
35 1163218737 1 -2.0
35 1163218737 1 -2.0
35 1163218737 1 -2.0
35 1163218737 1 -2.0
35 1163218737 1 -2.0
35 1163218737 1 -2.0
35 1163218737 1 -2.0
35 1163218737 1 -2.0
35 1163218737 1 -2.0
35 1163218737 1 -2.0
35 1163218737 1 -2.0
35 1163218737 1 -2.0
35 1163218737 1 -2.0
36 541412943 1 2.0
36 541412943 1 -2.0
36 541412943 1 -2.0
36 541412943 1 -2.0
36 541412943 1 -2.0
36 541412943 1 -2.0
36 541412943 1 -2.0
36 541412943 1 -2.0
36 541412943 1 -2.0
36 541412943 1 -2.0
36 541412943 1 -2.0
36 541412943 1 -2.0
36 541412943 1 -2.0
36 541412943 1 -2.0
37 540094770 32890753 2.0
37 540094770 32890753 -2.0
37 540094770 32890753 -2.0
37 540094770 32890753 -2.0
37 540094770 32890753 -2.0
37 540094770 32890753 -2.0
37 540094770 32890753 -2.0
37 540094770 32890753 -2.0
37 540094770 32890753 -2.0
37 540094770 32890753 -2.0
37 540094770 32890753 -2.0
37 540094770 32890753 -2.0
37 540094770 32890753 -2.0
37 540094770 32890753 -2.0
38 540090417 1 2.0
38 540090417 1 -2.0
38 540090417 1 -2.0
38 540090417 1 -2.0
38 540090417 1 -2.0
38 540090417 1 -2.0
38 540090417 1 -2.0
38 540090417 1 -2.0
38 540090417 1 -2.0
38 540090417 1 -2.0
38 540090417 1 -2.0
38 540090417 1 -2.0
38 540090417 1 -2.0
38 540090417 1 -2.0
39 50 -1748423815 2.0
39 50 -1748423815 -2.0
39 50 -1748423815 -2.0
39 50 -1748423815 -2.0
39 50 -1748423815 -2.0
39 50 -1748423815 -2.0
39 50 -1748423815 -2.0
39 50 -1748423815 -2.0
39 50 -1748423815 -2.0
39 50 -1748423815 -2.0
39 50 -1748423815 -2.0
39 50 -1748423815 -2.0
39 50 -1748423815 -2.0
39 50 -1748423815 -2.0
40 32581 1 2.0
40 32581 1 -2.0
40 32581 1 -2.0
40 32581 1 -2.0
40 32581 1 -2.0
40 32581 1 -2.0
40 32581 1 -2.0
40 32581 1 -2.0
40 32581 1 -2.0
40 32581 1 -2.0
40 32581 1 -2.0
40 32581 1 -2.0
40 32581 1 -2.0
40 32581 1 -2.0
41 1651076122 113 2.0
41 1651076122 113 -2.0
41 1651076122 113 -2.0
41 1651076122 113 -2.0
41 1651076122 113 -2.0
41 1651076122 113 -2.0
41 1651076122 113 -2.0
41 1651076122 113 -2.0
41 1651076122 113 -2.0
41 1651076122 113 -2.0
41 1651076122 113 -2.0
41 1651076122 113 -2.0
41 1651076122 113 -2.0
41 1651076122 113 -2.0
42 1852403556 1 2.0
42 1852403556 1 -2.0
42 1852403556 1 -2.0
42 1852403556 1 -2.0
42 1852403556 1 -2.0
42 1852403556 1 -2.0
42 1852403556 1 -2.0
42 1852403556 1 -2.0
42 1852403556 1 -2.0
42 1852403556 1 -2.0
42 1852403556 1 -2.0
42 1852403556 1 -2.0
42 1852403556 1 -2.0
42 1852403556 1 -2.0
43 1768711012 33 2.0
43 1768711012 33 -2.0
43 1768711012 33 -2.0
43 1768711012 33 -2.0
43 1768711012 33 -2.0
43 1768711012 33 -2.0
43 1768711012 33 -2.0
43 1768711012 33 -2.0
43 1768711012 33 -2.0
43 1768711012 33 -2.0
43 1768711012 33 -2.0
43 1768711012 33 -2.0
43 1768711012 33 -2.0
43 1768711012 33 -2.0
44 775173731 1 2.0
44 775173731 1 -2.0
44 775173731 1 -2.0
44 775173731 1 -2.0
44 775173731 1 -2.0
44 775173731 1 -2.0
44 775173731 1 -2.0
44 775173731 1 -2.0
44 775173731 1 -2.0
44 775173731 1 -2.0
44 775173731 1 -2.0
44 775173731 1 -2.0
44 775173731 1 -2.0
44 775173731 1 -2.0
45 1920287498 1646292852 2.0
45 1920287498 1646292852 -2.0
45 1920287498 1646292852 -2.0
45 1920287498 1646292852 -2.0
45 1920287498 1646292852 -2.0
45 1920287498 1646292852 -2.0
45 1920287498 1646292852 -2.0
45 1920287498 1646292852 -2.0
45 1920287498 1646292852 -2.0
45 1920287498 1646292852 -2.0
45 1920287498 1646292852 -2.0
45 1920287498 1646292852 -2.0
45 1920287498 1646292852 -2.0
45 1920287498 1646292852 -2.0
46 1986817876 824209008 2.0
46 1986817876 824209008 -2.0
46 1986817876 824209008 -2.0
46 1986817876 824209008 -2.0
46 1986817876 824209008 -2.0
46 1986817876 824209008 -2.0
46 1986817876 824209008 -2.0
46 1986817876 824209008 -2.0
46 1986817876 824209008 -2.0
46 1986817876 824209008 -2.0
46 1986817876 824209008 -2.0
46 1986817876 824209008 -2.0
46 1986817876 824209008 -2.0
46 1986817876 824209008 -2.0
47 1852125217 -1748405658 2.0
47 1852125217 -1748405658 -2.0
47 1852125217 -1748405658 -2.0
47 1852125217 -1748405658 -2.0
47 1852125217 -1748405658 -2.0
47 1852125217 -1748405658 -2.0
47 1852125217 -1748405658 -2.0
47 1852125217 -1748405658 -2.0
47 1852125217 -1748405658 -2.0
47 1852125217 -1748405658 -2.0
47 1852125217 -1748405658 -2.0
47 1852125217 -1748405658 -2.0
47 1852125217 -1748405658 -2.0
47 1852125217 -1748405658 -2.0
48 1915646838 32581 2.0
48 1915646838 32581 -2.0
48 1915646838 32581 -2.0
48 1915646838 32581 -2.0
48 1915646838 32581 -2.0
48 1915646838 32581 -2.0
48 1915646838 32581 -2.0
48 1915646838 32581 -2.0
48 1915646838 32581 -2.0
48 1915646838 32581 -2.0
48 1915646838 32581 -2.0
48 1915646838 32581 -2.0
48 1915646838 32581 -2.0
48 1915646838 32581 -2.0
49 32894033 49 2.0
49 32894033 49 -2.0
49 32894033 49 -2.0
49 32894033 49 -2.0
49 32894033 49 -2.0
49 32894033 49 -2.0
49 32894033 49 -2.0
49 32894033 49 -2.0
49 32894033 49 -2.0
49 32894033 49 -2.0
49 32894033 49 -2.0
49 32894033 49 -2.0
49 32894033 49 -2.0
49 32894033 49 -2.0
50 1 1 2.0
50 1 1 -2.0
50 1 1 -2.0
50 1 1 -2.0
50 1 1 -2.0
50 1 1 -2.0
50 1 1 -2.0
50 1 1 -2.0
50 1 1 -2.0
50 1 1 -2.0
50 1 1 -2.0
50 1 1 -2.0
50 1 1 -2.0
50 1 1 -2.0
51 306 130 2.0
51 306 130 -2.0
51 306 130 -2.0
51 306 130 -2.0
51 306 130 -2.0
51 306 130 -2.0
51 306 130 -2.0
51 306 130 -2.0
51 306 130 -2.0
51 306 130 -2.0
51 306 130 -2.0
51 306 130 -2.0
51 306 130 -2.0
51 306 130 -2.0
52 1 1 2.0
52 1 1 -2.0
52 1 1 -2.0
52 1 1 -2.0
52 1 1 -2.0
52 1 1 -2.0
52 1 1 -2.0
52 1 1 -2.0
52 1 1 -2.0
52 1 1 -2.0
52 1 1 -2.0
52 1 1 -2.0
52 1 1 -2.0
52 1 1 -2.0
53 -1748423527 -1772333855 2.0
53 -1748423527 -1772333855 -2.0
53 -1748423527 -1772333855 -2.0
53 -1748423527 -1772333855 -2.0
53 -1748423527 -1772333855 -2.0
53 -1748423527 -1772333855 -2.0
53 -1748423527 -1772333855 -2.0
53 -1748423527 -1772333855 -2.0
53 -1748423527 -1772333855 -2.0
53 -1748423527 -1772333855 -2.0
53 -1748423527 -1772333855 -2.0
53 -1748423527 -1772333855 -2.0
53 -1748423527 -1772333855 -2.0
53 -1748423527 -1772333855 -2.0
54 32581 32581 2.0
54 32581 32581 -2.0
54 32581 32581 -2.0
54 32581 32581 -2.0
54 32581 32581 -2.0
54 32581 32581 -2.0
54 32581 32581 -2.0
54 32581 32581 -2.0
54 32581 32581 -2.0
54 32581 32581 -2.0
54 32581 32581 -2.0
54 32581 32581 -2.0
54 32581 32581 -2.0
54 32581 32581 -2.0
55 2 -1748423527 2.0
55 2 -1748423527 -2.0
55 2 -1748423527 -2.0
55 2 -1748423527 -2.0
55 2 -1748423527 -2.0
55 2 -1748423527 -2.0
55 2 -1748423527 -2.0
55 2 -1748423527 -2.0
55 2 -1748423527 -2.0
55 2 -1748423527 -2.0
55 2 -1748423527 -2.0
55 2 -1748423527 -2.0
55 2 -1748423527 -2.0
55 2 -1748423527 -2.0
56 32581 1 2.0
56 32581 1 -2.0
56 32581 1 -2.0
56 32581 1 -2.0
56 32581 1 -2.0
56 32581 1 -2.0
56 32581 1 -2.0
56 32581 1 -2.0
56 32581 1 -2.0
56 32581 1 -2.0
56 32581 1 -2.0
56 32581 1 -2.0
56 32581 1 -2.0
56 32581 1 -2.0
57 32893681 1 2.0
57 32893681 1 -2.0
57 32893681 1 -2.0
57 32893681 1 -2.0
57 32893681 1 -2.0
57 32893681 1 -2.0
57 32893681 1 -2.0
57 32893681 1 -2.0
57 32893681 1 -2.0
57 32893681 1 -2.0
57 32893681 1 -2.0
57 32893681 1 -2.0
57 32893681 1 -2.0
57 32893681 1 -2.0
58 1 1 2.0
58 1 1 -2.0
58 1 1 -2.0
58 1 1 -2.0
58 1 1 -2.0
58 1 1 -2.0
58 1 1 -2.0
58 1 1 -2.0
58 1 1 -2.0
58 1 1 -2.0
58 1 1 -2.0
58 1 1 -2.0
58 1 1 -2.0
58 1 1 -2.0
59 1 1 2.0
59 1 1 -2.0
59 1 1 -2.0
59 1 1 -2.0
59 1 1 -2.0
59 1 1 -2.0
59 1 1 -2.0
59 1 1 -2.0
59 1 1 -2.0
59 1 1 -2.0
59 1 1 -2.0
59 1 1 -2.0
59 1 1 -2.0
59 1 1 -2.0
60 1 1 2.0
60 1 1 -2.0
60 1 1 -2.0
60 1 1 -2.0
60 1 1 -2.0
60 1 1 -2.0
60 1 1 -2.0
60 1 1 -2.0
60 1 1 -2.0
60 1 1 -2.0
60 1 1 -2.0
60 1 1 -2.0
60 1 1 -2.0
60 1 1 -2.0
61 32891905 32887361 2.0
61 32891905 32887361 -2.0
61 32891905 32887361 -2.0
61 32891905 32887361 -2.0
61 32891905 32887361 -2.0
61 32891905 32887361 -2.0
61 32891905 32887361 -2.0
61 32891905 32887361 -2.0
61 32891905 32887361 -2.0
61 32891905 32887361 -2.0
61 32891905 32887361 -2.0
61 32891905 32887361 -2.0
61 32891905 32887361 -2.0
61 32891905 32887361 -2.0
62 1 1 2.0
62 1 1 -2.0
62 1 1 -2.0
62 1 1 -2.0
62 1 1 -2.0
62 1 1 -2.0
62 1 1 -2.0
62 1 1 -2.0
62 1 1 -2.0
62 1 1 -2.0
62 1 1 -2.0
62 1 1 -2.0
62 1 1 -2.0
62 1 1 -2.0
63 32893713 258 2.0
63 32893713 258 -2.0
63 32893713 258 -2.0
63 32893713 258 -2.0
63 32893713 258 -2.0
63 32893713 258 -2.0
63 32893713 258 -2.0
63 32893713 258 -2.0
63 32893713 258 -2.0
63 32893713 258 -2.0
63 32893713 258 -2.0
63 32893713 258 -2.0
63 32893713 258 -2.0
63 32893713 258 -2.0
64 1 1 2.0
64 1 1 -2.0
64 1 1 -2.0
64 1 1 -2.0
64 1 1 -2.0
64 1 1 -2.0
64 1 1 -2.0
64 1 1 -2.0
64 1 1 -2.0
64 1 1 -2.0
64 1 1 -2.0
64 1 1 -2.0
64 1 1 -2.0
64 1 1 -2.0
65 32891665 1 2.0
65 32891665 1 -2.0
65 32891665 1 -2.0
65 32891665 1 -2.0
65 32891665 1 -2.0
65 32891665 1 -2.0
65 32891665 1 -2.0
65 32891665 1 -2.0
65 32891665 1 -2.0
65 32891665 1 -2.0
65 32891665 1 -2.0
65 32891665 1 -2.0
65 32891665 1 -2.0
65 32891665 1 -2.0
66 1 1 2.0
66 1 1 -2.0
66 1 1 -2.0
66 1 1 -2.0
66 1 1 -2.0
66 1 1 -2.0
66 1 1 -2.0
66 1 1 -2.0
66 1 1 -2.0
66 1 1 -2.0
66 1 1 -2.0
66 1 1 -2.0
66 1 1 -2.0
66 1 1 -2.0
67 33574625 1 2.0
67 33574625 1 -2.0
67 33574625 1 -2.0
67 33574625 1 -2.0
67 33574625 1 -2.0
67 33574625 1 -2.0
67 33574625 1 -2.0
67 33574625 1 -2.0
67 33574625 1 -2.0
67 33574625 1 -2.0
67 33574625 1 -2.0
67 33574625 1 -2.0
67 33574625 1 -2.0
67 33574625 1 -2.0
68 1 1 2.0
68 1 1 -2.0
68 1 1 -2.0
68 1 1 -2.0
68 1 1 -2.0
68 1 1 -2.0
68 1 1 -2.0
68 1 1 -2.0
68 1 1 -2.0
68 1 1 -2.0
68 1 1 -2.0
68 1 1 -2.0
68 1 1 -2.0
68 1 1 -2.0
69 33 1 2.0
69 33 1 -2.0
69 33 1 -2.0
69 33 1 -2.0
69 33 1 -2.0
69 33 1 -2.0
69 33 1 -2.0
69 33 1 -2.0
69 33 1 -2.0
69 33 1 -2.0
69 33 1 -2.0
69 33 1 -2.0
69 33 1 -2.0
69 33 1 -2.0
70 2 1 2.0
70 2 1 -2.0
70 2 1 -2.0
70 2 1 -2.0
70 2 1 -2.0
70 2 1 -2.0
70 2 1 -2.0
70 2 1 -2.0
70 2 1 -2.0
70 2 1 -2.0
70 2 1 -2.0
70 2 1 -2.0
70 2 1 -2.0
70 2 1 -2.0
71 145 1 2.0
71 145 1 -2.0
71 145 1 -2.0
71 145 1 -2.0
71 145 1 -2.0
71 145 1 -2.0
71 145 1 -2.0
71 145 1 -2.0
71 145 1 -2.0
71 145 1 -2.0
71 145 1 -2.0
71 145 1 -2.0
71 145 1 -2.0
71 145 1 -2.0
72 1 1 2.0
72 1 1 -2.0
72 1 1 -2.0
72 1 1 -2.0
72 1 1 -2.0
72 1 1 -2.0
72 1 1 -2.0
72 1 1 -2.0
72 1 1 -2.0
72 1 1 -2.0
72 1 1 -2.0
72 1 1 -2.0
72 1 1 -2.0
72 1 1 -2.0
73 33576353 2 2.0
73 33576353 2 -2.0
73 33576353 2 -2.0
73 33576353 2 -2.0
73 33576353 2 -2.0
73 33576353 2 -2.0
73 33576353 2 -2.0
73 33576353 2 -2.0
73 33576353 2 -2.0
73 33576353 2 -2.0
73 33576353 2 -2.0
73 33576353 2 -2.0
73 33576353 2 -2.0
73 33576353 2 -2.0
74 2 1 2.0
74 2 1 -2.0
74 2 1 -2.0
74 2 1 -2.0
74 2 1 -2.0
74 2 1 -2.0
74 2 1 -2.0
74 2 1 -2.0
74 2 1 -2.0
74 2 1 -2.0
74 2 1 -2.0
74 2 1 -2.0
74 2 1 -2.0
74 2 1 -2.0
75 1 -1748423815 2.0
75 1 -1748423815 -2.0
75 1 -1748423815 -2.0
75 1 -1748423815 -2.0
75 1 -1748423815 -2.0
75 1 -1748423815 -2.0
75 1 -1748423815 -2.0
75 1 -1748423815 -2.0
75 1 -1748423815 -2.0
75 1 -1748423815 -2.0
75 1 -1748423815 -2.0
75 1 -1748423815 -2.0
75 1 -1748423815 -2.0
75 1 -1748423815 -2.0
76 32581 1 2.0
76 32581 1 -2.0
76 32581 1 -2.0
76 32581 1 -2.0
76 32581 1 -2.0
76 32581 1 -2.0
76 32581 1 -2.0
76 32581 1 -2.0
76 32581 1 -2.0
76 32581 1 -2.0
76 32581 1 -2.0
76 32581 1 -2.0
76 32581 1 -2.0
76 32581 1 -2.0
77 124 23 2.0
77 124 23 -2.0
77 124 23 -2.0
77 124 23 -2.0
77 124 23 -2.0
77 124 23 -2.0
77 124 23 -2.0
77 124 23 -2.0
77 124 23 -2.0
77 124 23 -2.0
77 124 23 -2.0
77 124 23 -2.0
77 124 23 -2.0
77 124 23 -2.0
78 41 1 2.0
78 41 1 -2.0
78 41 1 -2.0
78 41 1 -2.0
78 41 1 -2.0
78 41 1 -2.0
78 41 1 -2.0
78 41 1 -2.0
78 41 1 -2.0
78 41 1 -2.0
78 41 1 -2.0
78 41 1 -2.0
78 41 1 -2.0
78 41 1 -2.0
79 -2147483648 1 2.0
79 -2147483648 1 -2.0
79 -2147483648 1 -2.0
79 -2147483648 1 -2.0
79 -2147483648 1 -2.0
79 -2147483648 1 -2.0
79 -2147483648 1 -2.0
79 -2147483648 1 -2.0
79 -2147483648 1 -2.0
79 -2147483648 1 -2.0
79 -2147483648 1 -2.0
79 -2147483648 1 -2.0
79 -2147483648 1 -2.0
79 -2147483648 1 -2.0
80 256 1 2.0
80 256 1 -2.0
80 256 1 -2.0
80 256 1 -2.0
80 256 1 -2.0
80 256 1 -2.0
80 256 1 -2.0
80 256 1 -2.0
80 256 1 -2.0
80 256 1 -2.0
80 256 1 -2.0
80 256 1 -2.0
80 256 1 -2.0
80 256 1 -2.0
81 1 1 2.0
81 1 1 -2.0
81 1 1 -2.0
81 1 1 -2.0
81 1 1 -2.0
81 1 1 -2.0
81 1 1 -2.0
81 1 1 -2.0
81 1 1 -2.0
81 1 1 -2.0
81 1 1 -2.0
81 1 1 -2.0
81 1 1 -2.0
81 1 1 -2.0
82 1 1 2.0
82 1 1 -2.0
82 1 1 -2.0
82 1 1 -2.0
82 1 1 -2.0
82 1 1 -2.0
82 1 1 -2.0
82 1 1 -2.0
82 1 1 -2.0
82 1 1 -2.0
82 1 1 -2.0
82 1 1 -2.0
82 1 1 -2.0
82 1 1 -2.0
83 34 1 2.0
83 34 1 -2.0
83 34 1 -2.0
83 34 1 -2.0
83 34 1 -2.0
83 34 1 -2.0
83 34 1 -2.0
83 34 1 -2.0
83 34 1 -2.0
83 34 1 -2.0
83 34 1 -2.0
83 34 1 -2.0
83 34 1 -2.0
83 34 1 -2.0
84 1 1 2.0
84 1 1 -2.0
84 1 1 -2.0
84 1 1 -2.0
84 1 1 -2.0
84 1 1 -2.0
84 1 1 -2.0
84 1 1 -2.0
84 1 1 -2.0
84 1 1 -2.0
84 1 1 -2.0
84 1 1 -2.0
84 1 1 -2.0
84 1 1 -2.0
85 1953845015 1 -2.0
85 1953845015 1 -2.0
85 1953845015 1 -2.0
85 1953845015 1 -2.0
85 1953845015 1 -2.0
85 1953845015 1 -2.0
85 1953845015 1 -2.0
85 1953845015 1 -2.0
85 1953845015 1 -2.0
85 1953845015 1 -2.0
85 1953845015 1 -2.0
85 1953845015 1 -2.0
85 1953845015 1 -2.0
86 544503153 1 -2.0
86 544503153 1 -2.0
86 544503153 1 -2.0
86 544503153 1 -2.0
86 544503153 1 -2.0
86 544503153 1 -2.0
86 544503153 1 -2.0
86 544503153 1 -2.0
86 544503153 1 -2.0
86 544503153 1 -2.0
86 544503153 1 -2.0
86 544503153 1 -2.0
86 544503153 1 -2.0
87 1701603687 1 -2.0
87 1701603687 1 -2.0
87 1701603687 1 -2.0
87 1701603687 1 -2.0
87 1701603687 1 -2.0
87 1701603687 1 -2.0
87 1701603687 1 -2.0
87 1701603687 1 -2.0
87 1701603687 1 -2.0
87 1701603687 1 -2.0
87 1701603687 1 -2.0
87 1701603687 1 -2.0
87 1701603687 1 -2.0
88 1734438945 1 -2.0
88 1734438945 1 -2.0
88 1734438945 1 -2.0
88 1734438945 1 -2.0
88 1734438945 1 -2.0
88 1734438945 1 -2.0
88 1734438945 1 -2.0
88 1734438945 1 -2.0
88 1734438945 1 -2.0
88 1734438945 1 -2.0
88 1734438945 1 -2.0
88 1734438945 1 -2.0
88 1734438945 1 -2.0
89 1769414758 1 -2.0
89 1769414758 1 -2.0
89 1769414758 1 -2.0
89 1769414758 1 -2.0
89 1769414758 1 -2.0
89 1769414758 1 -2.0
89 1769414758 1 -2.0
89 1769414758 1 -2.0
89 1769414758 1 -2.0
89 1769414758 1 -2.0
89 1769414758 1 -2.0
89 1769414758 1 -2.0
89 1769414758 1 -2.0
90 6845541 1 -2.0
90 6845541 1 -2.0
90 6845541 1 -2.0
90 6845541 1 -2.0
90 6845541 1 -2.0
90 6845541 1 -2.0
90 6845541 1 -2.0
90 6845541 1 -2.0
90 6845541 1 -2.0
90 6845541 1 -2.0
90 6845541 1 -2.0
90 6845541 1 -2.0
90 6845541 1 -2.0
91 34 1 -2.0
91 34 1 -2.0
91 34 1 -2.0
91 34 1 -2.0
91 34 1 -2.0
91 34 1 -2.0
91 34 1 -2.0
91 34 1 -2.0
91 34 1 -2.0
91 34 1 -2.0
91 34 1 -2.0
91 34 1 -2.0
91 34 1 -2.0
92 1 1 -2.0
92 1 1 -2.0
92 1 1 -2.0
92 1 1 -2.0
92 1 1 -2.0
92 1 1 -2.0
92 1 1 -2.0
92 1 1 -2.0
92 1 1 -2.0
92 1 1 -2.0
92 1 1 -2.0
92 1 1 -2.0
92 1 1 -2.0
93 1734430730 177 -2.0
93 1734430730 177 -2.0
93 1734430730 177 -2.0
93 1734430730 177 -2.0
93 1734430730 177 -2.0
93 1734430730 177 -2.0
93 1734430730 177 -2.0
93 1734430730 177 -2.0
93 1734430730 177 -2.0
93 1734430730 177 -2.0
93 1734430730 177 -2.0
93 1734430730 177 -2.0
93 1734430730 177 -2.0
94 1684625254 1 -2.0
94 1684625254 1 -2.0
94 1684625254 1 -2.0
94 1684625254 1 -2.0
94 1684625254 1 -2.0
94 1684625254 1 -2.0
94 1684625254 1 -2.0
94 1684625254 1 -2.0
94 1684625254 1 -2.0
94 1684625254 1 -2.0
94 1684625254 1 -2.0
94 1684625254 1 -2.0
94 1684625254 1 -2.0
95 49 -1748408203 -2.0
95 49 -1748408203 -2.0
95 49 -1748408203 -2.0
95 49 -1748408203 -2.0
95 49 -1748408203 -2.0
95 49 -1748408203 -2.0
95 49 -1748408203 -2.0
95 49 -1748408203 -2.0
95 49 -1748408203 -2.0
95 49 -1748408203 -2.0
95 49 -1748408203 -2.0
95 49 -1748408203 -2.0
95 49 -1748408203 -2.0
96 32581 1 -2.0
96 32581 1 -2.0
96 32581 1 -2.0
96 32581 1 -2.0
96 32581 1 -2.0
96 32581 1 -2.0
96 32581 1 -2.0
96 32581 1 -2.0
96 32581 1 -2.0
96 32581 1 -2.0
96 32581 1 -2.0
96 32581 1 -2.0
96 32581 1 -2.0
97 32897665 1 2.0
97 32897665 1 -2.0
98 1 1 2.0
98 1 1 -2.0
99 50 1 2.0
99 50 1 -2.0
100 1 1 2.0
100 1 1 -2.0
101 1734430730 1 2.0
101 1734430730 1 -2.0
102 1684625254 1 2.0
102 1684625254 1 -2.0
103 1 -1748408203 2.0
103 1 -1748408203 -2.0
104 32581 1 2.0
104 32581 1 -2.0
105 32898097 1 2.0
105 32898097 1 -2.0
106 1 1 2.0
106 1 1 -2.0
107 32897889 82 2.0
107 32897889 82 -2.0
108 1 1 2.0
108 1 1 -2.0
109 32891665 49 2.0
109 32891665 49 -2.0
110 1 1 2.0
110 1 1 -2.0
111 34 -1748423815 2.0
111 34 -1748423815 -2.0
112 32581 1 2.0
112 32581 1 -2.0
113 1818576901 1 2.0
113 1818576901 1 -2.0
114 32625 1 2.0
114 32625 1 -2.0
115 1 -1748423815 2.0
115 1 -1748423815 -2.0
116 32581 1 2.0
116 32581 1 -2.0
117 32891681 1 2.0
117 32891681 1 -2.0
118 1 1 2.0
118 1 1 -2.0
119 130 34 2.0
119 130 34 -2.0
120 1 1 2.0
120 1 1 -2.0
121 -1748423815 -1772333855 2.0
121 -1748423815 -1772333855 -2.0
122 32581 32581 2.0
122 32581 32581 -2.0
123 32936737 2 2.0
123 32936737 2 -2.0
124 1 1 2.0
124 1 1 -2.0
125 32893953 305 2.0
125 32893953 305 -2.0
126 1 1 2.0
126 1 1 -2.0
127 113 1 2.0
127 113 1 -2.0
128 1 1 2.0
128 1 1 -2.0
129 32887361 -1772334495 2.0
129 32887361 -1772334495 -2.0
130 32581 1 2.0
130 32581 1 -2.0
131 32894001 1 2.0
131 32894001 1 -2.0
132 1 1 2.0
132 1 1 -2.0
133 1 1 2.0
133 1 1 -2.0
134 1 1 2.0
134 1 1 -2.0
135 1 1 2.0
135 1 1 -2.0
136 1 1 2.0
136 1 1 -2.0
137 32887361 1 2.0
137 32887361 1 -2.0
138 2 1 2.0
138 2 1 -2.0
139 32890913 1 2.0
139 32890913 1 -2.0
140 1 1 2.0
140 1 1 -2.0
141 2 1 2.0
141 2 1 -2.0
142 2 1 2.0
142 2 1 -2.0
143 1 1 2.0
143 1 1 -2.0
144 1 1 2.0
144 1 1 -2.0
145 2 1 2.0
145 2 1 -2.0
146 1 1 2.0
146 1 1 -2.0
147 -2147483648 1 2.0
147 -2147483648 1 -2.0
148 101012 10 2.0
148 101012 10 -2.0
1178 # number of linear terms in all constraints
1 1 -1.0
1 17 -1.0
1 33 -1.0
1 49 -1.0
1 65 -1.0
1 81 -1.0
1 201 1.0
1 202 -1.0
1 203 -1.0
1 204 -1.0
1 205 -1.0
1 206 -1.0
1 207 -1.0
1 208 -1.0
1 209 -1.0
1 210 -1.0
1 211 -1.0
1 212 -1.0
1 213 -1.0
1 214 -1.0
1 215 -1.0
1 216 -1.0
1 217 -1.0
2 2 -1.0
2 18 -1.0
2 34 -1.0
2 50 -1.0
2 66 -1.0
2 82 -1.0
2 218 1.0
2 219 -1.0
2 220 -1.0
2 221 -1.0
2 222 -1.0
2 223 -1.0
2 224 -1.0
2 225 -1.0
2 226 -1.0
2 227 -1.0
2 228 -1.0
2 229 -1.0
2 230 -1.0
2 231 -1.0
2 232 -1.0
2 233 -1.0
2 234 -1.0
3 3 -1.0
3 19 -1.0
3 35 -1.0
3 51 -1.0
3 67 -1.0
3 83 -1.0
3 235 1.0
3 236 -1.0
3 237 -1.0
3 238 -1.0
3 239 -1.0
3 240 -1.0
3 241 -1.0
3 242 -1.0
3 243 -1.0
3 244 -1.0
3 245 -1.0
3 246 -1.0
3 247 -1.0
3 248 -1.0
3 249 -1.0
3 250 -1.0
3 251 -1.0
4 4 -1.0
4 20 -1.0
4 36 -1.0
4 52 -1.0
4 68 -1.0
4 84 -1.0
4 252 1.0
4 253 -1.0
4 254 -1.0
4 255 -1.0
4 256 -1.0
4 257 -1.0
4 258 -1.0
4 259 -1.0
4 260 -1.0
4 261 -1.0
4 262 -1.0
4 263 -1.0
4 264 -1.0
4 265 -1.0
4 266 -1.0
4 267 -1.0
4 268 -1.0
5 5 -1.0
5 21 -1.0
5 37 -1.0
5 53 -1.0
5 69 -1.0
5 85 -1.0
5 269 1.0
5 270 -1.0
5 271 -1.0
5 272 -1.0
5 273 -1.0
5 274 -1.0
5 275 -1.0
5 276 -1.0
5 277 -1.0
5 278 -1.0
5 279 -1.0
5 280 -1.0
5 281 -1.0
5 282 -1.0
5 283 -1.0
5 284 -1.0
5 285 -1.0
6 6 -1.0
6 22 -1.0
6 38 -1.0
6 54 -1.0
6 70 -1.0
6 86 -1.0
6 286 1.0
6 287 -1.0
6 288 -1.0
6 289 -1.0
6 290 -1.0
6 291 -1.0
6 292 -1.0
6 293 -1.0
6 294 -1.0
6 295 -1.0
6 296 -1.0
6 297 -1.0
6 298 -1.0
6 299 -1.0
6 300 -1.0
6 301 -1.0
6 302 -1.0
7 7 -1.0
7 23 -1.0
7 39 -1.0
7 55 -1.0
7 71 -1.0
7 87 -1.0
7 303 1.0
7 304 -1.0
7 305 -1.0
7 306 -1.0
7 307 -1.0
7 308 -1.0
7 309 -1.0
7 310 -1.0
7 311 -1.0
7 312 -1.0
7 313 -1.0
7 314 -1.0
7 315 -1.0
7 316 -1.0
7 317 -1.0
7 318 -1.0
7 319 -1.0
8 8 -1.0
8 24 -1.0
8 40 -1.0
8 56 -1.0
8 72 -1.0
8 88 -1.0
8 320 1.0
8 321 -1.0
8 322 -1.0
8 323 -1.0
8 324 -1.0
8 325 -1.0
8 326 -1.0
8 327 -1.0
8 328 -1.0
8 329 -1.0
8 330 -1.0
8 331 -1.0
8 332 -1.0
8 333 -1.0
8 334 -1.0
8 335 -1.0
8 336 -1.0
9 9 -1.0
9 25 -1.0
9 41 -1.0
9 57 -1.0
9 73 -1.0
9 89 -1.0
9 337 1.0
9 338 -1.0
9 339 -1.0
9 340 -1.0
9 341 -1.0
9 342 -1.0
9 343 -1.0
9 344 -1.0
9 345 -1.0
9 346 -1.0
9 347 -1.0
9 348 -1.0
9 349 -1.0
9 350 -1.0
9 351 -1.0
9 352 -1.0
9 353 -1.0
10 10 -1.0
10 26 -1.0
10 42 -1.0
10 58 -1.0
10 74 -1.0
10 90 -1.0
10 354 1.0
10 355 -1.0
10 356 -1.0
10 357 -1.0
10 358 -1.0
10 359 -1.0
10 360 -1.0
10 361 -1.0
10 362 -1.0
10 363 -1.0
10 364 -1.0
10 365 -1.0
10 366 -1.0
10 367 -1.0
10 368 -1.0
10 369 -1.0
10 370 -1.0
11 11 -1.0
11 27 -1.0
11 43 -1.0
11 59 -1.0
11 75 -1.0
11 91 -1.0
11 371 1.0
11 372 -1.0
11 373 -1.0
11 374 -1.0
11 375 -1.0
11 376 -1.0
11 377 -1.0
11 378 -1.0
11 379 -1.0
11 380 -1.0
11 381 -1.0
11 382 -1.0
11 383 -1.0
11 384 -1.0
11 385 -1.0
11 386 -1.0
11 387 -1.0
12 12 -1.0
12 28 -1.0
12 44 -1.0
12 60 -1.0
12 76 -1.0
12 92 -1.0
12 388 1.0
12 389 -1.0
12 390 -1.0
12 391 -1.0
12 392 -1.0
12 393 -1.0
12 394 -1.0
12 395 -1.0
12 396 -1.0
12 397 -1.0
12 398 -1.0
12 399 -1.0
12 400 -1.0
12 401 -1.0
12 402 -1.0
12 403 -1.0
12 404 -1.0
13 13 -1.0
13 29 -1.0
13 45 -1.0
13 61 -1.0
13 77 -1.0
13 93 -1.0
13 405 1.0
13 406 -1.0
13 407 -1.0
13 408 -1.0
13 409 -1.0
13 410 -1.0
13 411 -1.0
13 412 -1.0
13 413 -1.0
13 414 -1.0
13 415 -1.0
13 416 -1.0
13 417 -1.0
13 418 -1.0
13 419 -1.0
13 420 -1.0
13 421 -1.0
14 14 -1.0
14 30 -1.0
14 46 -1.0
14 62 -1.0
14 78 -1.0
14 94 -1.0
14 422 -1.0
14 423 -1.0
14 424 -1.0
14 425 -1.0
14 426 -1.0
14 427 -1.0
14 428 -1.0
14 429 -1.0
14 430 -1.0
14 431 -1.0
14 432 -1.0
14 433 -1.0
14 434 -1.0
14 435 -1.0
14 436 -1.0
14 437 -1.0
15 15 -1.0
15 31 -1.0
15 47 -1.0
15 63 -1.0
15 79 -1.0
15 95 -1.0
15 438 -1.0
15 439 -1.0
15 440 -1.0
15 441 -1.0
15 442 -1.0
15 443 -1.0
15 444 -1.0
15 445 -1.0
15 446 -1.0
15 447 -1.0
15 448 -1.0
15 449 -1.0
15 450 -1.0
15 451 -1.0
15 452 -1.0
15 453 -1.0
16 16 -1.0
16 32 -1.0
16 48 -1.0
16 64 -1.0
16 80 -1.0
16 96 -1.0
16 454 -1.0
16 455 -1.0
16 456 -1.0
16 457 -1.0
16 458 -1.0
16 459 -1.0
16 460 -1.0
16 461 -1.0
16 462 -1.0
16 463 -1.0
16 464 -1.0
16 465 -1.0
16 466 -1.0
16 467 -1.0
16 468 -1.0
16 469 -1.0
17 201 1.0
17 202 -1.0
17 219 -1.0
17 236 -1.0
17 253 -1.0
17 270 -1.0
17 287 -1.0
17 304 -1.0
17 321 -1.0
17 338 -1.0
17 355 -1.0
17 372 -1.0
17 389 -1.0
17 406 -1.0
17 422 -1.0
17 438 -1.0
17 454 -1.0
17 470 -1.0
18 203 -1.0
18 218 1.0
18 220 -1.0
18 237 -1.0
18 254 -1.0
18 271 -1.0
18 288 -1.0
18 305 -1.0
18 322 -1.0
18 339 -1.0
18 356 -1.0
18 373 -1.0
18 390 -1.0
18 407 -1.0
18 423 -1.0
18 439 -1.0
18 455 -1.0
18 471 -1.0
19 204 -1.0
19 221 -1.0
19 235 1.0
19 238 -1.0
19 255 -1.0
19 272 -1.0
19 289 -1.0
19 306 -1.0
19 323 -1.0
19 340 -1.0
19 357 -1.0
19 374 -1.0
19 391 -1.0
19 408 -1.0
19 424 -1.0
19 440 -1.0
19 456 -1.0
19 472 -1.0
20 205 -1.0
20 222 -1.0
20 239 -1.0
20 252 1.0
20 256 -1.0
20 273 -1.0
20 290 -1.0
20 307 -1.0
20 324 -1.0
20 341 -1.0
20 358 -1.0
20 375 -1.0
20 392 -1.0
20 409 -1.0
20 425 -1.0
20 441 -1.0
20 457 -1.0
20 473 -1.0
21 206 -1.0
21 223 -1.0
21 240 -1.0
21 257 -1.0
21 269 1.0
21 274 -1.0
21 291 -1.0
21 308 -1.0
21 325 -1.0
21 342 -1.0
21 359 -1.0
21 376 -1.0
21 393 -1.0
21 410 -1.0
21 426 -1.0
21 442 -1.0
21 458 -1.0
21 474 -1.0
22 207 -1.0
22 224 -1.0
22 241 -1.0
22 258 -1.0
22 275 -1.0
22 286 1.0
22 292 -1.0
22 309 -1.0
22 326 -1.0
22 343 -1.0
22 360 -1.0
22 377 -1.0
22 394 -1.0
22 411 -1.0
22 427 -1.0
22 443 -1.0
22 459 -1.0
22 475 -1.0
23 208 -1.0
23 225 -1.0
23 242 -1.0
23 259 -1.0
23 276 -1.0
23 293 -1.0
23 303 1.0
23 310 -1.0
23 327 -1.0
23 344 -1.0
23 361 -1.0
23 378 -1.0
23 395 -1.0
23 412 -1.0
23 428 -1.0
23 444 -1.0
23 460 -1.0
23 476 -1.0
24 209 -1.0
24 226 -1.0
24 243 -1.0
24 260 -1.0
24 277 -1.0
24 294 -1.0
24 311 -1.0
24 320 1.0
24 328 -1.0
24 345 -1.0
24 362 -1.0
24 379 -1.0
24 396 -1.0
24 413 -1.0
24 429 -1.0
24 445 -1.0
24 461 -1.0
24 477 -1.0
25 210 -1.0
25 227 -1.0
25 244 -1.0
25 261 -1.0
25 278 -1.0
25 295 -1.0
25 312 -1.0
25 329 -1.0
25 337 1.0
25 346 -1.0
25 363 -1.0
25 380 -1.0
25 397 -1.0
25 414 -1.0
25 430 -1.0
25 446 -1.0
25 462 -1.0
25 478 -1.0
26 211 -1.0
26 228 -1.0
26 245 -1.0
26 262 -1.0
26 279 -1.0
26 296 -1.0
26 313 -1.0
26 330 -1.0
26 347 -1.0
26 354 1.0
26 364 -1.0
26 381 -1.0
26 398 -1.0
26 415 -1.0
26 431 -1.0
26 447 -1.0
26 463 -1.0
26 479 -1.0
27 212 -1.0
27 229 -1.0
27 246 -1.0
27 263 -1.0
27 280 -1.0
27 297 -1.0
27 314 -1.0
27 331 -1.0
27 348 -1.0
27 365 -1.0
27 371 1.0
27 382 -1.0
27 399 -1.0
27 416 -1.0
27 432 -1.0
27 448 -1.0
27 464 -1.0
27 480 -1.0
28 213 -1.0
28 230 -1.0
28 247 -1.0
28 264 -1.0
28 281 -1.0
28 298 -1.0
28 315 -1.0
28 332 -1.0
28 349 -1.0
28 366 -1.0
28 383 -1.0
28 388 1.0
28 400 -1.0
28 417 -1.0
28 433 -1.0
28 449 -1.0
28 465 -1.0
28 481 -1.0
29 214 -1.0
29 231 -1.0
29 248 -1.0
29 265 -1.0
29 282 -1.0
29 299 -1.0
29 316 -1.0
29 333 -1.0
29 350 -1.0
29 367 -1.0
29 384 -1.0
29 401 -1.0
29 405 1.0
29 418 -1.0
29 434 -1.0
29 450 -1.0
29 466 -1.0
29 482 -1.0
30 215 -1.0
30 232 -1.0
30 249 -1.0
30 266 -1.0
30 283 -1.0
30 300 -1.0
30 317 -1.0
30 334 -1.0
30 351 -1.0
30 368 -1.0
30 385 -1.0
30 402 -1.0
30 419 -1.0
30 435 -1.0
30 451 -1.0
30 467 -1.0
30 483 -1.0
31 216 -1.0
31 233 -1.0
31 250 -1.0
31 267 -1.0
31 284 -1.0
31 301 -1.0
31 318 -1.0
31 335 -1.0
31 352 -1.0
31 369 -1.0
31 386 -1.0
31 403 -1.0
31 420 -1.0
31 436 -1.0
31 452 -1.0
31 468 -1.0
31 484 -1.0
32 217 -1.0
32 234 -1.0
32 251 -1.0
32 268 -1.0
32 285 -1.0
32 302 -1.0
32 319 -1.0
32 336 -1.0
32 353 -1.0
32 370 -1.0
32 387 -1.0
32 404 -1.0
32 421 -1.0
32 437 -1.0
32 453 -1.0
32 469 -1.0
32 485 -1.0
33 1 -2.0
33 17 -7.0
33 33 -7.0
33 49 -6.0
33 65 -4.0
33 81 -8.0
33 215 -2808.0
33 216 -1753.0
33 217 -1379.0
34 1 -9.0
34 17 -6.0
34 33 -9.0
34 49 -9.0
34 81 -5.0
34 215 -1630.0
34 216 -1716.0
34 217 -2352.0
35 1 -8.0
35 17 -4.0
35 33 -7.0
35 49 -8.0
35 81 -6.0
35 215 -2281.0
35 216 -890.0
35 217 -2532.0
36 1 -1.0
36 17 -6.0
36 33 -1.0
36 65 -6.0
36 81 -9.0
36 215 -1996.0
36 216 -1853.0
36 217 -626.0
37 2 -2.0
37 18 -7.0
37 34 -7.0
37 50 -6.0
37 66 -4.0
37 82 -8.0
37 232 -2808.0
37 233 -1753.0
37 234 -1379.0
38 2 -9.0
38 18 -6.0
38 34 -9.0
38 50 -9.0
38 82 -5.0
38 232 -1630.0
38 233 -1716.0
38 234 -2352.0
39 2 -8.0
39 18 -4.0
39 34 -7.0
39 50 -8.0
39 82 -6.0
39 232 -2281.0
39 233 -890.0
39 234 -2532.0
40 2 -1.0
40 18 -6.0
40 34 -1.0
40 66 -6.0
40 82 -9.0
40 232 -1996.0
40 233 -1853.0
40 234 -626.0
41 3 -2.0
41 19 -7.0
41 35 -7.0
41 51 -6.0
41 67 -4.0
41 83 -8.0
41 249 -2808.0
41 250 -1753.0
41 251 -1379.0
42 3 -9.0
42 19 -6.0
42 35 -9.0
42 51 -9.0
42 83 -5.0
42 249 -1630.0
42 250 -1716.0
42 251 -2352.0
43 3 -8.0
43 19 -4.0
43 35 -7.0
43 51 -8.0
43 83 -6.0
43 249 -2281.0
43 250 -890.0
43 251 -2532.0
44 3 -1.0
44 19 -6.0
44 35 -1.0
44 67 -6.0
44 83 -9.0
44 249 -1996.0
44 250 -1853.0
44 251 -626.0
45 4 -2.0
45 20 -7.0
45 36 -7.0
45 52 -6.0
45 68 -4.0
45 84 -8.0
45 266 -2808.0
45 267 -1753.0
45 268 -1379.0
46 4 -9.0
46 20 -6.0
46 36 -9.0
46 52 -9.0
46 84 -5.0
46 266 -1630.0
46 267 -1716.0
46 268 -2352.0
47 4 -8.0
47 20 -4.0
47 36 -7.0
47 52 -8.0
47 84 -6.0
47 266 -2281.0
47 267 -890.0
47 268 -2532.0
48 4 -1.0
48 20 -6.0
48 36 -1.0
48 68 -6.0
48 84 -9.0
48 266 -1996.0
48 267 -1853.0
48 268 -626.0
49 5 -2.0
49 21 -7.0
49 37 -7.0
49 53 -6.0
49 69 -4.0
49 85 -8.0
49 283 -2808.0
49 284 -1753.0
49 285 -1379.0
50 5 -9.0
50 21 -6.0
50 37 -9.0
50 53 -9.0
50 85 -5.0
50 283 -1630.0
50 284 -1716.0
50 285 -2352.0
51 5 -8.0
51 21 -4.0
51 37 -7.0
51 53 -8.0
51 85 -6.0
51 283 -2281.0
51 284 -890.0
51 285 -2532.0
52 5 -1.0
52 21 -6.0
52 37 -1.0
52 69 -6.0
52 85 -9.0
52 283 -1996.0
52 284 -1853.0
52 285 -626.0
53 6 -2.0
53 22 -7.0
53 38 -7.0
53 54 -6.0
53 70 -4.0
53 86 -8.0
53 300 -2808.0
53 301 -1753.0
53 302 -1379.0
54 6 -9.0
54 22 -6.0
54 38 -9.0
54 54 -9.0
54 86 -5.0
54 300 -1630.0
54 301 -1716.0
54 302 -2352.0
55 6 -8.0
55 22 -4.0
55 38 -7.0
55 54 -8.0
55 86 -6.0
55 300 -2281.0
55 301 -890.0
55 302 -2532.0
56 6 -1.0
56 22 -6.0
56 38 -1.0
56 70 -6.0
56 86 -9.0
56 300 -1996.0
56 301 -1853.0
56 302 -626.0
57 7 -2.0
57 23 -7.0
57 39 -7.0
57 55 -6.0
57 71 -4.0
57 87 -8.0
57 317 -2808.0
57 318 -1753.0
57 319 -1379.0
58 7 -9.0
58 23 -6.0
58 39 -9.0
58 55 -9.0
58 87 -5.0
58 317 -1630.0
58 318 -1716.0
58 319 -2352.0
59 7 -8.0
59 23 -4.0
59 39 -7.0
59 55 -8.0
59 87 -6.0
59 317 -2281.0
59 318 -890.0
59 319 -2532.0
60 7 -1.0
60 23 -6.0
60 39 -1.0
60 71 -6.0
60 87 -9.0
60 317 -1996.0
60 318 -1853.0
60 319 -626.0
61 8 -2.0
61 24 -7.0
61 40 -7.0
61 56 -6.0
61 72 -4.0
61 88 -8.0
61 334 -2808.0
61 335 -1753.0
61 336 -1379.0
62 8 -9.0
62 24 -6.0
62 40 -9.0
62 56 -9.0
62 88 -5.0
62 334 -1630.0
62 335 -1716.0
62 336 -2352.0
63 8 -8.0
63 24 -4.0
63 40 -7.0
63 56 -8.0
63 88 -6.0
63 334 -2281.0
63 335 -890.0
63 336 -2532.0
64 8 -1.0
64 24 -6.0
64 40 -1.0
64 72 -6.0
64 88 -9.0
64 334 -1996.0
64 335 -1853.0
64 336 -626.0
65 9 -2.0
65 25 -7.0
65 41 -7.0
65 57 -6.0
65 73 -4.0
65 89 -8.0
65 351 -2808.0
65 352 -1753.0
65 353 -1379.0
66 9 -9.0
66 25 -6.0
66 41 -9.0
66 57 -9.0
66 89 -5.0
66 351 -1630.0
66 352 -1716.0
66 353 -2352.0
67 9 -8.0
67 25 -4.0
67 41 -7.0
67 57 -8.0
67 89 -6.0
67 351 -2281.0
67 352 -890.0
67 353 -2532.0
68 9 -1.0
68 25 -6.0
68 41 -1.0
68 73 -6.0
68 89 -9.0
68 351 -1996.0
68 352 -1853.0
68 353 -626.0
69 10 -2.0
69 26 -7.0
69 42 -7.0
69 58 -6.0
69 74 -4.0
69 90 -8.0
69 368 -2808.0
69 369 -1753.0
69 370 -1379.0
70 10 -9.0
70 26 -6.0
70 42 -9.0
70 58 -9.0
70 90 -5.0
70 368 -1630.0
70 369 -1716.0
70 370 -2352.0
71 10 -8.0
71 26 -4.0
71 42 -7.0
71 58 -8.0
71 90 -6.0
71 368 -2281.0
71 369 -890.0
71 370 -2532.0
72 10 -1.0
72 26 -6.0
72 42 -1.0
72 74 -6.0
72 90 -9.0
72 368 -1996.0
72 369 -1853.0
72 370 -626.0
73 11 -2.0
73 27 -7.0
73 43 -7.0
73 59 -6.0
73 75 -4.0
73 91 -8.0
73 385 -2808.0
73 386 -1753.0
73 387 -1379.0
74 11 -9.0
74 27 -6.0
74 43 -9.0
74 59 -9.0
74 91 -5.0
74 385 -1630.0
74 386 -1716.0
74 387 -2352.0
75 11 -8.0
75 27 -4.0
75 43 -7.0
75 59 -8.0
75 91 -6.0
75 385 -2281.0
75 386 -890.0
75 387 -2532.0
76 11 -1.0
76 27 -6.0
76 43 -1.0
76 75 -6.0
76 91 -9.0
76 385 -1996.0
76 386 -1853.0
76 387 -626.0
77 12 -2.0
77 28 -7.0
77 44 -7.0
77 60 -6.0
77 76 -4.0
77 92 -8.0
77 402 -2808.0
77 403 -1753.0
77 404 -1379.0
78 12 -9.0
78 28 -6.0
78 44 -9.0
78 60 -9.0
78 92 -5.0
78 402 -1630.0
78 403 -1716.0
78 404 -2352.0
79 12 -8.0
79 28 -4.0
79 44 -7.0
79 60 -8.0
79 92 -6.0
79 402 -2281.0
79 403 -890.0
79 404 -2532.0
80 12 -1.0
80 28 -6.0
80 44 -1.0
80 76 -6.0
80 92 -9.0
80 402 -1996.0
80 403 -1853.0
80 404 -626.0
81 13 -2.0
81 29 -7.0
81 45 -7.0
81 61 -6.0
81 77 -4.0
81 93 -8.0
81 419 -2808.0
81 420 -1753.0
81 421 -1379.0
82 13 -9.0
82 29 -6.0
82 45 -9.0
82 61 -9.0
82 93 -5.0
82 419 -1630.0
82 420 -1716.0
82 421 -2352.0
83 13 -8.0
83 29 -4.0
83 45 -7.0
83 61 -8.0
83 93 -6.0
83 419 -2281.0
83 420 -890.0
83 421 -2532.0
84 13 -1.0
84 29 -6.0
84 45 -1.0
84 77 -6.0
84 93 -9.0
84 419 -1996.0
84 420 -1853.0
84 421 -626.0
85 14 -2.0
85 30 -7.0
85 46 -7.0
85 62 -6.0
85 78 -4.0
85 94 -8.0
85 435 -2808.0
85 436 -1753.0
85 437 -1379.0
86 14 -9.0
86 30 -6.0
86 46 -9.0
86 62 -9.0
86 94 -5.0
86 435 -1630.0
86 436 -1716.0
86 437 -2352.0
87 14 -8.0
87 30 -4.0
87 46 -7.0
87 62 -8.0
87 94 -6.0
87 435 -2281.0
87 436 -890.0
87 437 -2532.0
88 14 -1.0
88 30 -6.0
88 46 -1.0
88 78 -6.0
88 94 -9.0
88 435 -1996.0
88 436 -1853.0
88 437 -626.0
89 15 -2.0
89 31 -7.0
89 47 -7.0
89 63 -6.0
89 79 -4.0
89 95 -8.0
89 451 -2808.0
89 452 -1753.0
89 453 -1379.0
90 15 -9.0
90 31 -6.0
90 47 -9.0
90 63 -9.0
90 95 -5.0
90 451 -1630.0
90 452 -1716.0
90 453 -2352.0
91 15 -8.0
91 31 -4.0
91 47 -7.0
91 63 -8.0
91 95 -6.0
91 451 -2281.0
91 452 -890.0
91 453 -2532.0
92 15 -1.0
92 31 -6.0
92 47 -1.0
92 79 -6.0
92 95 -9.0
92 451 -1996.0
92 452 -1853.0
92 453 -626.0
93 16 -2.0
93 32 -7.0
93 48 -7.0
93 64 -6.0
93 80 -4.0
93 96 -8.0
93 467 -2808.0
93 468 -1753.0
93 469 -1379.0
94 16 -9.0
94 32 -6.0
94 48 -9.0
94 64 -9.0
94 96 -5.0
94 467 -1630.0
94 468 -1716.0
94 469 -2352.0
95 16 -8.0
95 32 -4.0
95 48 -7.0
95 64 -8.0
95 96 -6.0
95 467 -2281.0
95 468 -890.0
95 469 -2532.0
96 16 -1.0
96 32 -6.0
96 48 -1.0
96 80 -6.0
96 96 -9.0
96 467 -1996.0
96 468 -1853.0
96 469 -626.0
1.79769313486232E+308 # value for infinity
0.0 # default left-hand-side value
70 # number of non-default left-hand-sides
14 -45.0
15 -100.0
16 -75.0
30 -70.0
31 -120.0
32 -80.0
85 -77310.0
86 -38610.0
87 -14535.0
88 -8595.0
89 -166100.0
90 -136600.0
91 -41300.0
92 -154600.0
93 -93225.0
94 -47925.0
95 -155850.0
96 -18675.0
97 -3752.0
98 -146060.0
99 -151420.0
100 -93800.0
101 -10434.0
102 -29748.0
103 -42254.0
104 -20202.0
105 -48022.0
106 -13806.0
107 -14612.0
108 -39182.0
109 -123816.0
110 -23056.0
111 -209352.0
112 -195536.0
113 -107500.0
114 -24600.0
115 -79900.0
116 -186000.0
117 -5280.0
118 -31240.0
119 -67155.0
120 -76175.0
121 -57900.0
122 -9850.0
123 -35700.0
124 -134550.0
125 -2626.0
126 -33748.0
127 -23088.0
128 -67496.0
129 -223146.0
130 -19110.0
131 -97412.0
132 -22932.0
133 -48070.0
134 -114425.0
135 -72220.0
136 -200790.0
137 -81090.0
138 -133365.0
139 -25075.0
140 -4335.0
141 -75905.0
142 -111435.0
143 -109725.0
144 -21660.0
145 -33800.0
146 -176500.0
147 -153000.0
148 -74400.0
0.0 # default right-hand-side value
70 # number of non-default right-hand-sides
14 -45.0
15 -100.0
16 -75.0
30 -70.0
31 -120.0
32 -80.0
85 1.79769313486232E+308
86 1.79769313486232E+308
87 1.79769313486232E+308
88 1.79769313486232E+308
89 1.79769313486232E+308
90 1.79769313486232E+308
91 1.79769313486232E+308
92 1.79769313486232E+308
93 1.79769313486232E+308
94 1.79769313486232E+308
95 1.79769313486232E+308
96 1.79769313486232E+308
97 -3752.0
98 -146060.0
99 -151420.0
100 -93800.0
101 -10434.0
102 -29748.0
103 -42254.0
104 -20202.0
105 -48022.0
106 -13806.0
107 -14612.0
108 -39182.0
109 -123816.0
110 -23056.0
111 -209352.0
112 -195536.0
113 -107500.0
114 -24600.0
115 -79900.0
116 -186000.0
117 -5280.0
118 -31240.0
119 -67155.0
120 -76175.0
121 -57900.0
122 -9850.0
123 -35700.0
124 -134550.0
125 -2626.0
126 -33748.0
127 -23088.0
128 -67496.0
129 -223146.0
130 -19110.0
131 -97412.0
132 -22932.0
133 -48070.0
134 -114425.0
135 -72220.0
136 -200790.0
137 -81090.0
138 -133365.0
139 -25075.0
140 -4335.0
141 -75905.0
142 -111435.0
143 -109725.0
144 -21660.0
145 -33800.0
146 -176500.0
147 -153000.0
148 -74400.0
0.0 # default variable lower bound value
0 # number of non-default variable lower bounds
100000.0 # default variable upper bound value
117 # number of non-default variable upper bounds
97 2250.0
98 575.0
99 203.0
100 1393.0
101 298.0
102 2353.0
103 364.0
104 2396.0
105 883.0
106 1292.0
107 2398.0
108 862.0
109 1257.0
110 2354.0
111 327.0
112 341.0
113 1680.0
114 2476.0
115 2105.0
116 1092.0
117 1759.0
118 301.0
119 139.0
120 1354.0
121 58.0
122 2025.0
123 511.0
124 124.0
125 2084.0
126 538.0
127 537.0
128 225.0
129 427.0
130 2087.0
131 1759.0
132 482.0
133 2086.0
134 1863.0
135 2195.0
136 396.0
137 2012.0
138 994.0
139 1923.0
140 2076.0
141 647.0
142 557.0
143 1675.0
144 2330.0
145 1898.0
146 527.0
147 381.0
148 1257.0
149 2278.0
150 1665.0
151 1333.0
152 2093.0
153 439.0
154 2755.0
155 935.0
156 2669.0
157 2730.0
158 1823.0
159 2960.0
160 2369.0
161 2664.0
162 2616.0
163 2706.0
164 2563.0
165 2755.0
166 2722.0
167 2904.0
168 2952.0
169 1855.0
170 869.0
171 1360.0
172 2739.0
173 1216.0
174 2222.0
175 1225.0
176 2815.0
177 2185.0
178 1836.0
179 1425.0
180 2821.0
181 2704.0
182 2282.0
183 2753.0
184 716.0
185 2504.0
186 2858.0
187 2823.0
188 2142.0
189 2966.0
190 2563.0
191 2218.0
192 2127.0
193 1446.0
194 1730.0
195 2830.0
196 2558.0
197 2236.0
198 2292.0
199 1911.0
200 2001.0
201 134.0
218 74.0
235 26.0
252 88.0
269 100.0
286 55.0
303 50.0
320 26.0
337 98.0
354 115.0
371 85.0
388 95.0
405 100.0
0.0 # default variable primal value in starting point
0 # number of non-default variable primal values in starting point
0.0 # default constraint dual value in starting point
0 # number of non-default constraint dual values in starting point
0.0 # default variable bound dual value in starting point
0 # number of non-default variable bound dual values in starting point
0 # number of non-default variable names
0 # number of non-default constraint names
